single_objective/SL-DABL/OP/problems/op/OPLib-master/solutions/ea4op/gen3/u724-gen3-50.sol
NAME : u724
TYPE : OP
DIMENSION : 724
COST_LIMIT : 20955
ROUTE_NODES : 408
ROUTE_SCORE : 27932
ROUTE_COST : 20944
NODE_SEQUENCE_SECTION
1
724
715
2
11
721
693
692
691
94
97
89
88
102
90
110
114
113
76
75
77
111
74
73
72
54
53
55
57
58
56
62
61
105
653
651
648
640
639
641
120
121
151
150
136
147
149
146
172
167
124
169
170
125
603
130
129
284
283
278
274
272
276
280
281
282
279
277
273
275
271
268
267
193
260
264
261
525
263
262
522
210
249
252
511
212
253
512
250
251
248
515
526
527
198
197
195
266
269
524
258
189
548
543
542
192
256
247
208
519
518
520
517
516
225
226
224
223
216
346
350
351
340
499
496
493
494
500
501
504
507
498
345
510
214
213
509
508
353
354
502
503
505
288
285
287
290
291
286
289
302
301
484
485
299
298
295
294
292
404
365
424
423
422
421
425
426
427
428
429
430
431
432
433
435
434
436
437
438
439
440
441
442
443
444
445
446
447
448
449
450
452
451
453
461
462
414
415
410
408
409
413
458
411
412
457
416
417
296
487
478
479
481
482
495
342
341
349
352
347
348
338
324
325
323
337
336
335
339
497
492
491
480
488
297
477
418
467
419
466
459
460
463
465
464
455
456
454
470
469
468
364
489
360
358
316
362
475
403
474
473
471
472
369
370
371
372
368
373
367
374
366
375
376
377
378
379
380
381
382
383
384
388
387
389
386
391
390
392
393
394
400
401
397
407
399
406
398
312
310
315
309
307
305
308
306
303
317
304
357
311
313
314
363
361
359
333
329
332
322
230
229
231
326
327
334
328
320
321
232
233
330
235
240
239
242
206
237
238
241
243
227
217
218
244
219
245
246
205
236
201
199
541
540
528
531
537
539
532
533
535
536
549
546
564
554
553
185
186
187
551
575
559
592
595
597
591
600
598
593
175
184
180
181
183
178
176
174
143
164
155
631
611
613
655
674
673
675
678
682
671
80
41
49
42
91
27
12
-1
DEPOT_SECTION
1
-1
EOF
